Code 2934
Dimension, Median 
   128       16     
 Facility, Client, Transportation Cost
     1        1           4
     1        2           4
     1        3           2
     1        5           4
     1        9           4
     1       17           0
     1       33           4
     1       65           2
     2        1           0
     2        2           2
     2        4           0
     2        6           1
     2       10           4
     2       18           0
     2       34           3
     2       66           2
     3        1           3
     3        3           3
     3        4           2
     3        7           2
     3       11           3
     3       19           3
     3       35           3
     3       67           1
     4        2           1
     4        3           1
     4        4           2
     4        8           0
     4       12           1
     4       20           3
     4       36           0
     4       68           1
     5        1           3
     5        5           2
     5        6           2
     5        7           2
     5       13           4
     5       21           4
     5       37           2
     5       69           1
     6        2           4
     6        5           3
     6        6           1
     6        8           3
     6       14           0
     6       22           3
     6       38           2
     6       70           2
     7        3           0
     7        5           3
     7        7           4
     7        8           4
     7       15           0
     7       23           3
     7       39           2
     7       71           1
     8        4           1
     8        6           1
     8        7           1
     8        8           2
     8       16           2
     8       24           3
     8       40           0
     8       72           3
     9        1           1
     9        9           1
     9       10           0
     9       11           1
     9       13           2
     9       25           4
     9       41           0
     9       73           1
    10        2           4
    10        9           2
    10       10           3
    10       12           1
    10       14           1
    10       26           1
    10       42           0
    10       74           4
    11        3           1
    11        9           0
    11       11           3
    11       12           1
    11       15           3
    11       27           1
    11       43           0
    11       75           0
    12        4           4
    12       10           2
    12       11           2
    12       12           3
    12       16           0
    12       28           3
    12       44           0
    12       76           1
    13        5           0
    13        9           3
    13       13           4
    13       14           4
    13       15           3
    13       29           1
    13       45           3
    13       77           1
    14        6           0
    14       10           3
    14       13           1
    14       14           1
    14       16           3
    14       30           0
    14       46           1
    14       78           2
    15        7           1
    15       11           2
    15       13           0
    15       15           0
    15       16           0
    15       31           1
    15       47           2
    15       79           0
    16        8           4
    16       12           0
    16       14           2
    16       15           0
    16       16           1
    16       32           2
    16       48           1
    16       80           0
    17        1           3
    17       17           0
    17       18           3
    17       19           2
    17       21           0
    17       25           0
    17       49           4
    17       81           4
    18        2           3
    18       17           1
    18       18           3
    18       20           3
    18       22           3
    18       26           1
    18       50           3
    18       82           1
    19        3           0
    19       17           2
    19       19           3
    19       20           2
    19       23           2
    19       27           1
    19       51           1
    19       83           4
    20        4           2
    20       18           1
    20       19           3
    20       20           3
    20       24           3
    20       28           2
    20       52           1
    20       84           1
    21        5           4
    21       17           1
    21       21           3
    21       22           3
    21       23           0
    21       29           3
    21       53           4
    21       85           2
    22        6           3
    22       18           4
    22       21           3
    22       22           4
    22       24           0
    22       30           2
    22       54           1
    22       86           2
    23        7           1
    23       19           4
    23       21           1
    23       23           4
    23       24           4
    23       31           0
    23       55           1
    23       87           0
    24        8           1
    24       20           1
    24       22           3
    24       23           0
    24       24           3
    24       32           2
    24       56           2
    24       88           0
    25        9           4
    25       17           1
    25       25           2
    25       26           2
    25       27           1
    25       29           1
    25       57           3
    25       89           1
    26       10           3
    26       18           1
    26       25           1
    26       26           2
    26       28           3
    26       30           3
    26       58           3
    26       90           4
    27       11           2
    27       19           4
    27       25           4
    27       27           3
    27       28           4
    27       31           2
    27       59           2
    27       91           1
    28       12           3
    28       20           3
    28       26           3
    28       27           3
    28       28           3
    28       32           2
    28       60           0
    28       92           2
    29       13           1
    29       21           1
    29       25           3
    29       29           2
    29       30           0
    29       31           1
    29       61           1
    29       93           4
    30       14           3
    30       22           4
    30       26           2
    30       29           4
    30       30           3
    30       32           1
    30       62           4
    30       94           2
    31       15           2
    31       23           0
    31       27           1
    31       29           0
    31       31           3
    31       32           1
    31       63           4
    31       95           4
    32       16           4
    32       24           1
    32       28           0
    32       30           1
    32       31           0
    32       32           4
    32       64           0
    32       96           0
    33        1           0
    33       33           1
    33       34           3
    33       35           3
    33       37           1
    33       41           3
    33       49           4
    33       97           0
    34        2           3
    34       33           1
    34       34           2
    34       36           4
    34       38           2
    34       42           3
    34       50           0
    34       98           1
    35        3           4
    35       33           3
    35       35           0
    35       36           1
    35       39           2
    35       43           0
    35       51           0
    35       99           1
    36        4           1
    36       34           0
    36       35           2
    36       36           1
    36       40           4
    36       44           2
    36       52           4
    36      100           4
    37        5           1
    37       33           2
    37       37           4
    37       38           1
    37       39           3
    37       45           4
    37       53           4
    37      101           0
    38        6           0
    38       34           4
    38       37           4
    38       38           2
    38       40           1
    38       46           0
    38       54           1
    38      102           4
    39        7           0
    39       35           1
    39       37           3
    39       39           3
    39       40           4
    39       47           4
    39       55           0
    39      103           3
    40        8           0
    40       36           2
    40       38           1
    40       39           2
    40       40           1
    40       48           2
    40       56           4
    40      104           1
    41        9           3
    41       33           1
    41       41           1
    41       42           3
    41       43           2
    41       45           0
    41       57           2
    41      105           3
    42       10           4
    42       34           1
    42       41           4
    42       42           2
    42       44           4
    42       46           4
    42       58           3
    42      106           2
    43       11           4
    43       35           3
    43       41           2
    43       43           1
    43       44           1
    43       47           1
    43       59           3
    43      107           0
    44       12           2
    44       36           1
    44       42           2
    44       43           4
    44       44           0
    44       48           0
    44       60           3
    44      108           0
    45       13           3
    45       37           0
    45       41           4
    45       45           1
    45       46           2
    45       47           4
    45       61           2
    45      109           4
    46       14           4
    46       38           3
    46       42           2
    46       45           0
    46       46           1
    46       48           3
    46       62           3
    46      110           1
    47       15           3
    47       39           2
    47       43           0
    47       45           1
    47       47           4
    47       48           1
    47       63           4
    47      111           3
    48       16           3
    48       40           4
    48       44           0
    48       46           3
    48       47           3
    48       48           0
    48       64           3
    48      112           1
    49       17           1
    49       33           2
    49       49           0
    49       50           2
    49       51           4
    49       53           1
    49       57           4
    49      113           1
    50       18           1
    50       34           4
    50       49           3
    50       50           3
    50       52           2
    50       54           2
    50       58           2
    50      114           4
    51       19           4
    51       35           2
    51       49           0
    51       51           4
    51       52           3
    51       55           2
    51       59           3
    51      115           1
    52       20           2
    52       36           0
    52       50           0
    52       51           1
    52       52           1
    52       56           0
    52       60           3
    52      116           4
    53       21           1
    53       37           1
    53       49           4
    53       53           1
    53       54           4
    53       55           4
    53       61           3
    53      117           2
    54       22           4
    54       38           0
    54       50           0
    54       53           3
    54       54           3
    54       56           1
    54       62           2
    54      118           0
    55       23           3
    55       39           3
    55       51           2
    55       53           0
    55       55           0
    55       56           4
    55       63           1
    55      119           3
    56       24           2
    56       40           2
    56       52           3
    56       54           1
    56       55           0
    56       56           0
    56       64           1
    56      120           1
    57       25           4
    57       41           4
    57       49           2
    57       57           1
    57       58           3
    57       59           3
    57       61           1
    57      121           4
    58       26           1
    58       42           2
    58       50           1
    58       57           2
    58       58           3
    58       60           3
    58       62           1
    58      122           3
    59       27           3
    59       43           1
    59       51           3
    59       57           1
    59       59           1
    59       60           2
    59       63           4
    59      123           2
    60       28           1
    60       44           2
    60       52           3
    60       58           1
    60       59           2
    60       60           0
    60       64           1
    60      124           0
    61       29           3
    61       45           1
    61       53           1
    61       57           2
    61       61           0
    61       62           2
    61       63           3
    61      125           4
    62       30           4
    62       46           1
    62       54           2
    62       58           1
    62       61           0
    62       62           4
    62       64           1
    62      126           0
    63       31           4
    63       47           0
    63       55           0
    63       59           1
    63       61           1
    63       63           4
    63       64           4
    63      127           2
    64       32           0
    64       48           1
    64       56           1
    64       60           0
    64       62           3
    64       63           2
    64       64           3
    64      128           0
    65        1           3
    65       65           2
    65       66           4
    65       67           1
    65       69           2
    65       73           2
    65       81           3
    65       97           4
    66        2           0
    66       65           4
    66       66           1
    66       68           1
    66       70           3
    66       74           4
    66       82           2
    66       98           3
    67        3           3
    67       65           2
    67       67           4
    67       68           0
    67       71           4
    67       75           0
    67       83           1
    67       99           3
    68        4           2
    68       66           4
    68       67           2
    68       68           2
    68       72           4
    68       76           2
    68       84           0
    68      100           1
    69        5           3
    69       65           1
    69       69           3
    69       70           3
    69       71           2
    69       77           0
    69       85           4
    69      101           4
    70        6           2
    70       66           4
    70       69           1
    70       70           0
    70       72           4
    70       78           2
    70       86           1
    70      102           4
    71        7           2
    71       67           0
    71       69           1
    71       71           3
    71       72           1
    71       79           1
    71       87           4
    71      103           0
    72        8           3
    72       68           0
    72       70           1
    72       71           3
    72       72           4
    72       80           1
    72       88           4
    72      104           1
    73        9           3
    73       65           0
    73       73           4
    73       74           1
    73       75           4
    73       77           2
    73       89           2
    73      105           0
    74       10           0
    74       66           1
    74       73           3
    74       74           1
    74       76           2
    74       78           4
    74       90           4
    74      106           4
    75       11           0
    75       67           3
    75       73           3
    75       75           3
    75       76           2
    75       79           4
    75       91           4
    75      107           0
    76       12           1
    76       68           0
    76       74           3
    76       75           4
    76       76           3
    76       80           1
    76       92           0
    76      108           4
    77       13           3
    77       69           0
    77       73           3
    77       77           2
    77       78           1
    77       79           3
    77       93           3
    77      109           1
    78       14           2
    78       70           3
    78       74           3
    78       77           2
    78       78           3
    78       80           4
    78       94           3
    78      110           3
    79       15           3
    79       71           1
    79       75           2
    79       77           4
    79       79           1
    79       80           1
    79       95           1
    79      111           4
    80       16           1
    80       72           2
    80       76           4
    80       78           2
    80       79           4
    80       80           1
    80       96           4
    80      112           2
    81       17           0
    81       65           1
    81       81           3
    81       82           0
    81       83           0
    81       85           2
    81       89           2
    81      113           1
    82       18           4
    82       66           4
    82       81           1
    82       82           0
    82       84           3
    82       86           2
    82       90           0
    82      114           2
    83       19           2
    83       67           3
    83       81           3
    83       83           1
    83       84           1
    83       87           0
    83       91           2
    83      115           2
    84       20           0
    84       68           4
    84       82           3
    84       83           4
    84       84           0
    84       88           0
    84       92           2
    84      116           2
    85       21           1
    85       69           3
    85       81           3
    85       85           4
    85       86           2
    85       87           0
    85       93           0
    85      117           3
    86       22           1
    86       70           2
    86       82           3
    86       85           3
    86       86           2
    86       88           4
    86       94           3
    86      118           3
    87       23           1
    87       71           0
    87       83           0
    87       85           1
    87       87           2
    87       88           3
    87       95           2
    87      119           2
    88       24           3
    88       72           2
    88       84           0
    88       86           3
    88       87           0
    88       88           3
    88       96           0
    88      120           1
    89       25           2
    89       73           2
    89       81           2
    89       89           4
    89       90           0
    89       91           0
    89       93           3
    89      121           2
    90       26           0
    90       74           1
    90       82           4
    90       89           4
    90       90           2
    90       92           0
    90       94           0
    90      122           3
    91       27           0
    91       75           3
    91       83           1
    91       89           4
    91       91           4
    91       92           3
    91       95           4
    91      123           0
    92       28           2
    92       76           3
    92       84           0
    92       90           3
    92       91           2
    92       92           2
    92       96           2
    92      124           1
    93       29           3
    93       77           0
    93       85           4
    93       89           1
    93       93           1
    93       94           4
    93       95           4
    93      125           4
    94       30           1
    94       78           1
    94       86           0
    94       90           3
    94       93           4
    94       94           0
    94       96           1
    94      126           3
    95       31           0
    95       79           1
    95       87           3
    95       91           4
    95       93           0
    95       95           1
    95       96           3
    95      127           3
    96       32           1
    96       80           2
    96       88           4
    96       92           3
    96       94           4
    96       95           3
    96       96           3
    96      128           1
    97       33           1
    97       65           2
    97       97           2
    97       98           0
    97       99           2
    97      101           1
    97      105           4
    97      113           2
    98       34           4
    98       66           2
    98       97           0
    98       98           3
    98      100           0
    98      102           0
    98      106           3
    98      114           1
    99       35           3
    99       67           4
    99       97           0
    99       99           1
    99      100           1
    99      103           2
    99      107           3
    99      115           0
   100       36           1
   100       68           1
   100       98           0
   100       99           0
   100      100           3
   100      104           4
   100      108           3
   100      116           2
   101       37           0
   101       69           4
   101       97           1
   101      101           0
   101      102           2
   101      103           1
   101      109           2
   101      117           1
   102       38           0
   102       70           0
   102       98           1
   102      101           2
   102      102           0
   102      104           4
   102      110           2
   102      118           0
   103       39           4
   103       71           3
   103       99           1
   103      101           2
   103      103           2
   103      104           2
   103      111           1
   103      119           3
   104       40           2
   104       72           0
   104      100           0
   104      102           4
   104      103           1
   104      104           1
   104      112           0
   104      120           2
   105       41           2
   105       73           1
   105       97           4
   105      105           2
   105      106           4
   105      107           0
   105      109           0
   105      121           3
   106       42           2
   106       74           0
   106       98           2
   106      105           4
   106      106           2
   106      108           0
   106      110           0
   106      122           2
   107       43           3
   107       75           0
   107       99           1
   107      105           4
   107      107           1
   107      108           4
   107      111           2
   107      123           4
   108       44           4
   108       76           4
   108      100           3
   108      106           1
   108      107           2
   108      108           0
   108      112           1
   108      124           1
   109       45           0
   109       77           2
   109      101           4
   109      105           0
   109      109           0
   109      110           2
   109      111           2
   109      125           3
   110       46           2
   110       78           4
   110      102           3
   110      106           4
   110      109           4
   110      110           2
   110      112           0
   110      126           2
   111       47           2
   111       79           4
   111      103           0
   111      107           3
   111      109           1
   111      111           1
   111      112           2
   111      127           3
   112       48           0
   112       80           3
   112      104           3
   112      108           4
   112      110           2
   112      111           0
   112      112           2
   112      128           3
   113       49           0
   113       81           2
   113       97           1
   113      113           3
   113      114           3
   113      115           4
   113      117           1
   113      121           0
   114       50           3
   114       82           0
   114       98           1
   114      113           2
   114      114           1
   114      116           0
   114      118           0
   114      122           1
   115       51           0
   115       83           0
   115       99           1
   115      113           4
   115      115           1
   115      116           1
   115      119           2
   115      123           4
   116       52           1
   116       84           0
   116      100           1
   116      114           2
   116      115           0
   116      116           1
   116      120           1
   116      124           4
   117       53           2
   117       85           1
   117      101           4
   117      113           1
   117      117           4
   117      118           1
   117      119           3
   117      125           4
   118       54           0
   118       86           1
   118      102           0
   118      114           2
   118      117           2
   118      118           2
   118      120           4
   118      126           3
   119       55           1
   119       87           4
   119      103           1
   119      115           4
   119      117           1
   119      119           1
   119      120           1
   119      127           3
   120       56           0
   120       88           2
   120      104           2
   120      116           2
   120      118           1
   120      119           1
   120      120           4
   120      128           3
   121       57           4
   121       89           0
   121      105           4
   121      113           4
   121      121           3
   121      122           3
   121      123           0
   121      125           3
   122       58           0
   122       90           2
   122      106           0
   122      114           4
   122      121           0
   122      122           3
   122      124           0
   122      126           4
   123       59           1
   123       91           4
   123      107           2
   123      115           0
   123      121           4
   123      123           2
   123      124           4
   123      127           2
   124       60           1
   124       92           0
   124      108           3
   124      116           0
   124      122           1
   124      123           2
   124      124           0
   124      128           1
   125       61           1
   125       93           4
   125      109           3
   125      117           4
   125      121           1
   125      125           0
   125      126           0
   125      127           1
   126       62           4
   126       94           0
   126      110           3
   126      118           3
   126      122           0
   126      125           3
   126      126           2
   126      128           3
   127       63           0
   127       95           0
   127      111           4
   127      119           0
   127      123           0
   127      125           3
   127      127           0
   127      128           0
   128       64           3
   128       96           4
   128      112           3
   128      120           4
   128      124           4
   128      126           1
   128      127           0
   128      128           3
